(set-logic QF_AUFLIA)

; rows (m) = 50
; cols (n) = 25
(declare-const D (Array Int (Array Int Int)))
(define-fun m () Int 50)
(define-fun n () Int 25)

; ----- Int version of row25 (NO ellipses) -----
(define-fun row25 ((x0 Int) (x1 Int) (x2 Int) (x3 Int) (x4 Int)
                   (x5 Int) (x6 Int) (x7 Int) (x8 Int) (x9 Int)
                   (x10 Int) (x11 Int) (x12 Int) (x13 Int) (x14 Int)
                   (x15 Int) (x16 Int) (x17 Int) (x18 Int) (x19 Int)
                   (x20 Int) (x21 Int) (x22 Int) (x23 Int) (x24 Int))
  (Array Int Int)(store(store(store(store(store(store(store(store(store(store(store(store(store(store(store(store(store(store(store(store(store(store(store(store
                          (store ((as const (Array Int Int)) 0) 0 x0)
                                1 x1)2 x2)3 x3)4 x4)5 x5)6 x6)7 x7)8 x8)9 x9)10 x10)11 x11)12 x12)13 x13)14 x14)15 x15)16 x16)17 x17)18 x18)19 x19)20 x20)21 x21)22 x22)23 x23)24 x24)
)


(assert (= (select D 0) (row25 1 6 4 12 5 5 3 4 1 67 3 2 1 2 1 0 0 1 0 0 1 0 0 1 1)))
(assert (= (select D 1) (row25 2 48 2 60 1 3 2 2 1 22 3 1 1 1 1 0 0 1 0 0 1 0 0 1 2)))
(assert (= (select D 2) (row25 4 12 4 21 1 4 3 3 1 49 3 1 2 1 1 0 0 1 0 0 1 0 1 0 1)))
(assert (= (select D 3) (row25 1 42 2 79 1 4 3 4 2 45 3 1 2 1 1 0 0 0 0 0 0 0 0 1 1)))
(assert (= (select D 4) (row25 1 24 3 49 1 3 3 4 4 53 3 2 2 1 1 1 0 1 0 0 0 0 0 1 2)))
(assert (= (select D 5) (row25 4 36 2 91 5 3 3 4 4 35 3 1 2 2 1 0 0 1 0 0 0 0 1 0 1)))
(assert (= (select D 6) (row25 4 24 2 28 3 5 3 4 2 53 3 1 1 1 1 0 0 1 0 0 1 0 0 1 1)))
(assert (= (select D 7) (row25 2 36 2 69 1 3 3 2 3 35 3 1 1 2 1 0 1 1 0 1 0 0 0 0 1)))
(assert (= (select D 8) (row25 4 12 2 31 4 4 1 4 1 61 3 1 1 1 1 0 0 1 0 0 1 0 1 0 1)))
(assert (= (select D 9) (row25 2 30 4 52 1 1 4 2 3 28 3 2 1 1 1 1 0 1 0 0 1 0 0 0 2)))
(assert (= (select D 10) (row25 2 12 2 13 1 2 2 1 3 25 3 1 1 1 1 1 0 1 0 1 0 0 0 1 2)))
(assert (= (select D 11) (row25 1 48 2 43 1 2 2 4 2 24 3 1 1 1 1 0 0 1 0 1 0 0 0 1 2)))
(assert (= (select D 12) (row25 2 12 2 16 1 3 2 1 3 22 3 1 1 2 1 0 0 1 0 0 1 0 0 1 1)))
(assert (= (select D 13) (row25 1 24 4 12 1 5 3 4 3 60 3 2 1 1 1 1 0 1 0 0 1 0 1 0 2)))
(assert (= (select D 14) (row25 1 15 2 14 1 3 2 4 3 28 3 1 1 1 1 1 0 1 0 1 0 0 0 1 1)))
(assert (= (select D 15) (row25 1 24 2 13 2 3 2 2 3 32 3 1 1 1 1 0 0 1 0 0 1 0 1 0 2)))
(assert (= (select D 16) (row25 4 24 4 24 5 5 3 4 2 53 3 2 1 1 1 0 0 1 0 0 1 0 0 1 1)))
(assert (= (select D 17) (row25 1 30 0 81 5 2 3 3 3 25 1 3 1 1 1 0 0 1 0 0 1 0 0 1 1)))
(assert (= (select D 18) (row25 2 24 2 126 1 5 2 2 4 44 3 1 1 2 1 0 1 1 0 0 0 0 0 0 2)))
(assert (= (select D 19) (row25 4 24 2 34 3 5 3 2 3 31 3 1 2 2 1 0 0 1 0 0 1 0 0 1 1)))
(assert (= (select D 20) (row25 4 9 4 21 1 3 3 4 3 48 3 3 1 2 1 1 0 1 0 0 1 0 0 1 1)))
(assert (= (select D 21) (row25 1 6 2 26 3 3 3 3 1 44 3 1 2 1 1 0 0 1 0 1 0 0 0 1 1)))
(assert (= (select D 22) (row25 1 10 4 22 1 2 3 3 1 48 3 2 2 1 2 1 0 1 0 1 0 0 1 0 1)))
(assert (= (select D 23) (row25 2 12 4 18 2 2 3 4 2 44 3 1 1 1 1 0 1 1 0 0 1 0 0 1 1)))
(assert (= (select D 24) (row25 4 10 4 21 5 3 4 1 3 26 3 2 1 1 2 0 0 1 0 0 1 0 0 1 1)))
(assert (= (select D 25) (row25 1 6 2 14 1 3 3 2 1 36 1 1 1 2 1 0 0 1 0 0 1 0 1 0 1)))
(assert (= (select D 26) (row25 4 6 0 4 1 5 4 4 3 39 3 1 1 1 1 0 0 1 0 0 1 0 1 0 1)))
(assert (= (select D 27) (row25 3 12 1 4 4 3 2 3 1 42 3 2 1 1 1 0 0 1 0 1 0 0 0 1 1)))
(assert (= (select D 28) (row25 2 7 2 24 1 3 3 2 1 34 3 1 1 1 1 0 0 0 0 0 1 0 0 1 1)))
(assert (= (select D 29) (row25 1 60 3 68 1 5 3 4 4 63 3 2 1 2 1 0 0 1 0 0 1 0 0 1 2)))
(assert (= (select D 30) (row25 2 18 2 19 4 2 4 3 1 36 1 1 1 2 1 0 0 1 0 0 1 0 0 1 1)))
(assert (= (select D 31) (row25 1 24 2 40 1 3 3 2 3 27 2 1 1 1 1 0 0 1 0 0 1 0 0 1 1)))
(assert (= (select D 32) (row25 2 18 2 59 2 3 3 2 3 30 3 2 1 2 1 1 0 1 0 0 1 0 0 1 1)))
(assert (= (select D 33) (row25 4 12 4 13 5 5 3 4 4 57 3 1 1 1 1 0 0 1 0 1 0 0 1 0 1)))
(assert (= (select D 34) (row25 3 12 2 15 1 2 2 1 2 33 1 1 1 2 1 0 0 1 0 0 1 0 0 0 1)))
(assert (= (select D 35) (row25 2 45 4 47 1 2 3 2 2 25 3 2 1 1 1 0 0 1 0 0 1 0 1 0 2)))
(assert (= (select D 36) (row25 4 48 4 61 1 3 3 3 4 31 1 1 1 2 1 0 0 1 0 0 0 0 0 1 1)))
(assert (= (select D 37) (row25 3 18 2 21 1 3 3 2 1 37 2 1 1 1 1 0 0 0 1 0 1 0 0 1 2)))
(assert (= (select D 38) (row25 3 10 2 12 1 3 3 2 3 37 3 1 1 2 1 0 0 1 0 0 1 0 0 1 1)))
(assert (= (select D 39) (row25 2 9 2 5 1 3 3 3 1 24 3 1 1 1 1 0 0 1 0 0 1 0 0 1 1)))
(assert (= (select D 40) (row25 4 30 2 23 3 5 3 2 3 30 1 1 1 1 1 0 0 1 0 0 1 0 0 0 1)))
(assert (= (select D 41) (row25 2 12 2 12 3 3 1 1 3 26 3 1 1 2 1 0 0 1 0 0 1 0 0 1 1)))
(assert (= (select D 42) (row25 2 18 3 62 1 3 3 4 1 44 3 1 2 2 1 0 0 1 0 0 1 0 1 0 1)))
(assert (= (select D 43) (row25 1 30 4 62 2 4 4 4 3 24 3 2 1 1 1 0 1 1 0 1 0 0 0 1 1)))
(assert (= (select D 44) (row25 1 48 4 61 1 5 2 4 4 58 2 2 1 1 1 0 1 1 0 0 0 0 1 0 2)))
(assert (= (select D 45) (row25 4 11 4 14 1 2 2 4 3 35 3 2 1 1 1 1 0 1 0 0 1 0 0 0 1)))
(assert (= (select D 46) (row25 4 36 2 23 3 5 3 4 3 39 3 1 1 1 1 0 0 1 0 0 1 0 0 1 1)))
(assert (= (select D 47) (row25 1 6 2 14 3 1 2 2 2 23 3 1 1 2 1 0 1 1 0 1 0 1 0 0 1)))
(assert (= (select D 48) (row25 4 11 4 72 1 3 3 4 2 39 3 2 1 1 1 1 0 1 0 0 1 0 1 0 1)))
(assert (= (select D 49) (row25 4 12 2 21 2 3 2 2 1 28 3 1 1 1 1 0 0 0 1 0 1 0 0 1 1)))